c 20_4_checker_5cl.cnf
c
c field = 20
c formula set type = 4_checker_5cl
c
p cnf 5 10
30 
32 
34 
36 
-40 
31 
33 
35 
37 
-41 
8 
68 
98 
128 
-158 
9 
69 
99 
129 
-159 
6 
70 
102 
134 
-166 
7 
71 
103 
135 
-167 
10 
66 
94 
122 
-150 
11 
67 
95 
123 
-151 
66 
94 
122 
150 
-10 
67 
95 
123 
151 
-11 
